c Problem Statistics
c Number of variables: 924
c Number of clauses: 1106
c Parse time (sec.) : 0.00
c
p cnf 924 954
196 0
-2 0
-15 0
-3 0
-9 0
-23 0
-10 0
-24 0
-12 0
-13 0
-14 0
-34 0
-35 0
-41 0
-57 0
-58 0
-66 0
-67 0
-72 0
-93 0
-113 0
-115 0
-121 0
-142 0
-155 0
-164 0
-170 0
-177 0
-166 0
-167 0
-26 0
-80 0
-17 0
-49 0
-70 0
-98 0
-107 0
-109 0
-146 0
-176 0
275 27 -28 11 0
-275 28 11 27 0
365 -52 -38 -51 0
-365 52 -38 -51 0
-445 73 -59 71 0
-281 29 -16 30 0
280 -29 16 -30 0
-280 -29 16 30 0
279 -29 -16 -30 0
-427 53 -54 68 0
427 -54 -68 53 0
-428 53 68 54 0
428 54 -68 53 0
-429 -53 68 -54 0
429 -53 -68 -54 0
-279 -29 -16 30 0
369 -52 -39 -53 0
-369 -52 -39 53 0
-394 44 59 45 0
-430 -53 68 54 0
786 -161 147 -160 0
-787 161 160 -147 0
787 -161 160 -147 0
-788 161 147 160 0
788 -161 160 147 0
-789 -161 -148 162 0
789 -161 -148 -162 0
-790 -161 148 162 0
790 -161 148 -162 0
161 162 -148 -791 0
161 -162 -148 791 0
-792 162 148 161 0
792 148 -162 161 0
-793 -149 -162 163 0
793 -149 -162 -163 0
-794 149 -162 163 0
-368 38 51 52 0
367 -38 51 -52 0
366 -52 -51 38 0
-366 -51 38 52 0
-447 73 -71 -59 0
447 -73 -71 -59 0
-303 -22 20 36 0
264 -8 -25 11 0
-264 -8 11 25 0
263 -8 -25 -11 0
-263 25 -11 -8 0
262 8 -25 11 0
-262 8 25 11 0
261 8 -25 -11 0
-261 8 25 -11 0
303 -22 20 -36 0
-304 22 20 36 0
304 22 20 -36 0
391 -44 -59 -45 0
-392 -44 45 59 0
392 -44 -59 45 0
-393 44 59 -45 0
393 44 -59 -45 0
368 38 51 -52 0
430 -53 -68 54 0
-448 73 -71 59 0
448 -73 -71 59 0
-449 -73 74 -60 0
449 -73 -74 -60 0
-450 -73 74 60 0
450 -73 -74 60 0
-451 74 -60 73 0
451 -74 -60 73 0
-305 -22 -20 36 0
305 -22 -20 -36 0
-306 22 -20 36 0
306 22 -20 -36 0
-307 8 -36 37 0
307 8 -36 -37 0
-452 73 74 60 0
452 73 -74 60 0
-367 -38 51 52 0
445 -73 -59 71 0
446 -73 59 71 0
-446 73 59 71 0
-773 158 -157 -144 0
773 -158 -157 -144 0
-774 158 -157 144 0
774 -158 -157 144 0
-775 158 -144 157 0
775 -158 -144 157 0
717 -129 -141 -143 0
-718 129 -141 143 0
718 129 -141 -143 0
-741 149 148 -135 0
741 -149 148 -135 0
-743 -136 -149 150 0
743 -136 -149 -150 0
-744 136 -149 150 0
744 136 -149 -150 0
-745 -136 149 150 0
745 -136 149 -150 0
-746 136 149 150 0
746 136 149 -150 0
-747 -137 -150 151 0
895 188 -189 -175 0
-896 188 175 189 0
896 188 175 -189 0
-901 -163 -190 191 0
901 -163 -190 -191 0
-902 163 -190 191 0
902 163 -190 -191 0
-756 139 -152 153 0
756 139 -152 -153 0
-757 153 -139 152 0
757 -153 -139 152 0
-758 153 139 152 0
758 -153 139 152 0
-759 -153 -140 154 0
759 -153 -140 -154 0
-760 -153 140 154 0
760 -153 140 -154 0
-761 153 -140 154 0
-762 153 140 154 0
816 154 -168 -165 0
-825 156 171 -157 0
825 156 -171 -157 0
-827 -158 -171 172 0
827 -158 -171 -172 0
-828 158 -171 172 0
828 158 -171 -172 0
-829 -158 171 172 0
829 -158 171 -172 0
-830 158 171 172 0
-776 157 144 158 0
776 157 144 -158 0
-777 -158 -145 159 0
777 -158 -145 -159 0
-778 -158 145 159 0
778 -158 145 -159 0
-779 158 -145 159 0
785 -161 -160 -147 0
779 158 -145 -159 0
-786 161 147 -160 0
-780 158 145 159 0
780 158 145 -159 0
-785 -160 -147 161 0
747 -137 -150 -151 0
-748 137 -150 151 0
748 137 -150 -151 0
-749 -137 150 151 0
749 -137 150 -151 0
-750 137 150 151 0
750 137 150 -151 0
-755 153 -139 -152 0
755 -153 -139 -152 0
794 149 -162 -163 0
-795 -149 162 163 0
795 -149 162 -163 0
-796 149 162 163 0
796 149 162 -163 0
-813 -154 165 168 0
813 -154 165 -168 0
761 153 -140 -154 0
762 153 140 -154 0
814 154 -168 165 0
-815 -154 -165 168 0
815 -154 -165 -168 0
154 168 -165 -816 0
501 -73 -87 86 0
-335 43 -30 44 0
-462 -76 63 77 0
461 -77 -63 -76 0
-461 -76 77 -63 0
460 -76 62 75 0
-460 76 62 75 0
459 -76 -62 75 0
-459 76 -62 75 0
458 62 -75 -76 0
-458 62 -75 76 0
311 8 -37 -38 0
-245 -7 -20 21 0
245 -7 -20 -21 0
-246 7 -20 21 0
53 -92 -94 -81 0
-247 21 -7 20 0
247 -21 -7 20 0
-248 21 7 20 0
248 -21 7 20 0
505 87 -74 -88 0
87 88 74 -506 0
87 -88 74 506 0
89 -88 -75 -507 0
507 -88 -75 -89 0
-508 -88 75 89 0
488 -83 69 82 0
-339 44 45 -31 0
314 -8 -38 37 0
338 -44 31 -45 0
-338 -44 31 45 0
337 -44 -31 -45 0
-337 -44 45 -31 0
336 43 30 -44 0
-336 43 30 44 0
-814 154 165 168 0
-499 87 -86 -73 0
499 -73 -87 -86 0
-500 87 -86 73 0
500 -87 -86 73 0
-501 -73 87 86 0
465 -64 -77 -78 0
-465 -64 -77 78 0
76 -77 63 464 0
462 -76 63 -77 0
96 110 -108 -95 0
-463 77 -63 76 0
463 -77 -63 76 0
-464 77 63 76 0
160 159 -132 145 0
133 147 -132 145 0
-39 27 -40 11 0
190 -162 -175 -189 0
-30 -1 -31 16 0
62 -20 -63 -48 0
-25 11 -39 -40 0
53 -81 92 94 0
52 -79 92 94 0
52 -92 -94 -79 0
-311 38 -37 8 0
310 -8 36 -37 0
-310 -8 36 37 0
457 -75 -62 -76 0
-457 -75 -62 76 0
309 8 36 -37 0
-309 8 36 37 0
308 -8 -36 -37 0
-308 -8 -36 37 0
350 20 -47 -48 0
-351 -20 47 48 0
468 64 77 -78 0
-468 64 77 78 0
467 -64 77 -78 0
-467 -64 77 78 0
466 64 -77 -78 0
335 43 -30 -44 0
-466 64 -77 78 0
351 -20 47 -48 0
-352 20 47 48 0
352 -48 47 20 0
-312 -8 -37 38 0
415 -51 -65 -64 0
-416 -64 51 65 0
416 -64 51 -65 0
-417 -51 65 64 0
417 -51 -65 64 0
-418 64 51 65 0
418 64 51 -65 0
-372 52 39 53 0
371 52 -39 -53 0
-371 53 -39 52 0
370 -52 39 -53 0
-370 -52 39 53 0
282 29 16 -30 0
-282 29 16 30 0
281 29 -16 -30 0
404 48 -61 -62 0
-405 61 -48 62 0
405 61 -62 -48 0
-406 48 61 62 0
406 48 -62 61 0
394 44 -59 45 0
-291 33 -32 -19 0
376 53 40 -54 0
-376 53 40 54 0
375 53 -40 -54 0
-375 53 -40 54 0
374 -53 40 -54 0
-403 -48 -61 62 0
403 -62 -61 -48 0
-404 48 -61 62 0
-382 56 -55 42 0
382 -56 -55 42 0
294 -33 19 32 0
-294 33 19 32 0
-293 32 -19 33 0
-292 33 -32 19 0
291 -33 -32 -19 0
-391 -44 -45 59 0
-415 -51 65 -64 0
348 33 46 -47 0
-348 33 46 47 0
347 -33 -47 46 0
-347 -33 46 47 0
346 33 -46 -47 0
-346 33 -46 47 0
345 -33 -46 -47 0
-345 -33 -46 47 0
312 -8 -38 -37 0
-313 8 37 38 0
334 -43 30 -44 0
-334 -43 30 44 0
333 -43 -30 -44 0
-333 -43 -30 44 0
-502 73 87 86 0
246 7 -20 -21 0
502 73 -87 86 0
-503 -87 -74 88 0
503 -87 -74 -88 0
-504 -87 74 88 0
504 -87 74 -88 0
-505 87 -74 88 0
-374 -53 40 54 0
373 -53 -40 -54 0
-373 -53 -40 54 0
372 52 39 -53 0
-411 64 -63 -50 0
411 -64 -63 -50 0
-485 83 -69 -82 0
485 -83 -69 -82 0
313 8 -38 37 0
-314 -8 37 38 0
340 44 31 -45 0
-340 44 31 45 0
339 44 -31 -45 0
293 32 -19 -33 0
292 -33 -32 19 0
-487 82 -69 83 0
487 -83 82 -69 0
-488 83 69 82 0
-350 48 20 -47 0
349 -20 -47 -48 0
-349 -20 -47 48 0
541 -83 96 -97 0
-542 83 96 97 0
542 83 96 -97 0
-549 -99 -86 100 0
549 -99 -86 -100 0
-550 100 -99 86 0
550 -100 -99 86 0
-551 99 -86 100 0
551 99 -86 -100 0
-552 100 86 99 0
552 -100 99 86 0
-87 -100 101 -553 0
604 100 -99 -114 0
605 -100 99 -114 0
554 87 -100 -101 0
-555 100 -87 101 0
555 100 -87 -101 0
-556 100 87 101 0
556 100 87 -101 0
-561 -89 -102 103 0
561 -89 -102 -103 0
689 -136 -122 -135 0
-690 136 122 -135 0
690 -136 122 -135 0
-691 -122 135 136 0
691 -122 135 -136 0
-692 122 135 136 0
692 122 135 -136 0
-693 -136 -123 137 0
693 -136 -123 -137 0
-694 -136 123 137 0
694 -136 123 -137 0
-486 -82 69 83 0
486 -82 69 -83 0
-696 136 123 137 0
696 136 123 -137 0
-697 -137 -124 138 0
538 82 -96 95 0
-539 -83 -96 97 0
539 -83 -96 -97 0
-540 83 -96 97 0
540 83 -96 -97 0
-541 -83 96 97 0
-535 -82 -95 96 0
535 -82 -95 -96 0
-536 82 96 -95 0
536 82 -96 -95 0
-537 -82 96 95 0
537 -82 -96 95 0
-538 82 96 95 0
-603 -99 114 -100 0
603 -99 -114 -100 0
-604 100 -99 114 0
-605 -100 99 114 0
-606 100 99 114 0
606 100 99 -114 0
-627 -106 -119 120 0
627 -106 -119 -120 0
-628 106 -119 120 0
628 106 -119 -120 0
-629 119 120 -106 0
629 -106 119 -120 0
-630 119 120 106 0
-562 89 -102 103 0
508 -88 75 -89 0
-509 89 -75 88 0
509 88 -75 -89 0
-510 89 75 88 0
510 88 75 -89 0
-511 -76 -89 90 0
511 -76 -89 -90 0
-695 137 -123 136 0
-512 76 -89 90 0
695 -137 -123 136 0
512 76 -89 -90 0
-513 -76 89 90 0
513 -76 89 -90 0
-514 76 89 90 0
514 76 89 -90 0
-531 -81 -94 95 0
531 -81 -94 -95 0
-532 95 81 -94 0
532 81 -95 -94 0
-533 95 94 -81 0
533 -95 94 -81 0
-534 95 94 81 0
534 -95 94 81 0
-676 118 131 132 0
676 118 131 -132 0
-677 -119 -132 133 0
677 -119 -132 -133 0
-678 119 133 -132 0
678 119 -132 -133 0
-651 126 -112 -125 0
651 -126 -112 -125 0
-657 -127 -114 128 0
657 -127 -114 -128 0
-658 -127 114 128 0
658 -127 114 -128 0
-659 127 -114 128 0
659 127 -114 -128 0
-660 127 114 128 0
660 127 114 -128 0
-661 -128 129 114 0
661 -128 -129 114 0
-662 -128 129 -114 0
662 -128 -129 -114 0
-663 128 114 129 0
-665 -129 130 -116 0
665 -129 -130 -116 0
-666 -129 130 116 0
666 -129 -130 116 0
-667 129 -116 130 0
-668 129 130 116 0
-669 -130 -117 131 0
669 -130 -117 -131 0
-670 117 -130 131 0
670 117 -130 -131 0
-671 130 -117 131 0
671 130 -117 -131 0
-672 131 130 117 0
672 130 -131 117 0
-673 132 -131 -118 0
673 -131 -118 -132 0
-674 132 -131 118 0
674 118 -131 -132 0
-675 131 132 -118 0
675 131 -132 -118 0
-707 139 -126 140 0
707 139 -126 -140 0
-708 139 126 140 0
-87 -100 -101 553 0
708 139 126 -140 0
-554 87 -100 101 0
-715 -129 141 143 0
715 -129 -143 141 0
-716 129 143 141 0
716 129 -143 141 0
-717 -129 143 -141 0
-679 -119 132 133 0
679 -119 132 -133 0
-680 119 132 133 0
680 -133 132 119 0
-681 -133 134 -120 0
681 -133 -134 -120 0
-682 -133 134 120 0
682 -133 -134 120 0
-683 -120 133 134 0
683 -120 133 -134 0
-684 120 133 134 0
684 120 -134 133 0
-689 136 -122 -135 0
663 128 114 -129 0
667 129 -116 -130 0
668 129 -130 116 0
697 -137 -124 -138 0
-698 -137 124 138 0
698 -137 124 -138 0
-699 137 -124 138 0
699 137 -124 -138 0
-700 137 124 138 0
700 137 124 -138 0
-701 139 -138 -125 0
701 -139 -138 -125 0
-702 -138 125 139 0
702 -138 125 -139 0
-703 139 -125 138 0
703 -139 -125 138 0
-704 139 125 138 0
704 -139 125 138 0
-705 -139 -126 140 0
705 -139 -126 -140 0
-706 -139 126 140 0
885 -186 -173 -187 0
886 -187 173 -186 0
855 -178 -165 -179 0
-856 179 -178 165 0
856 -179 -178 165 0
-857 178 -165 179 0
857 178 -165 -179 0
-858 179 165 178 0
858 -179 165 178 0
-859 -179 180 -165 0
859 -179 -180 -165 0
-860 -179 180 165 0
-903 -163 191 190 0
903 -163 -191 190 0
-904 163 191 190 0
904 163 -191 190 0
-909 -179 -192 193 0
909 -179 -192 -193 0
-910 179 -192 193 0
910 179 -192 -193 0
-664 128 -114 129 0
664 128 -114 -129 0
876 183 156 -184 0
-881 186 -185 -172 0
881 -186 -185 -172 0
-882 -185 172 186 0
882 -185 172 -186 0
-883 185 -172 186 0
883 185 -172 -186 0
-884 185 172 186 0
830 158 171 -172 0
-838 173 160 174 0
838 173 160 -174 0
-839 -174 175 -161 0
839 -161 -174 -175 0
-840 161 -174 175 0
840 161 -174 -175 0
-841 -161 175 174 0
841 -161 -175 174 0
-842 161 175 174 0
842 161 -175 174 0
-886 187 173 -186 0
-887 186 -173 187 0
887 186 -173 -187 0
-888 186 173 187 0
888 186 173 -187 0
-889 -187 -174 188 0
-895 188 -175 189 0
894 -188 175 -189 0
889 -187 -174 -188 0
188 -187 174 -890 0
890 -187 174 -188 0
-891 187 -174 188 0
-894 175 189 -188 0
891 187 -174 -188 0
893 -188 -189 -175 0
-892 187 174 188 0
892 187 174 -188 0
-893 -188 189 -175 0
-911 -179 192 193 0
911 -179 192 -193 0
-876 183 156 184 0
-912 179 192 193 0
912 179 192 -193 0
-913 -193 -180 194 0
913 -193 -180 -194 0
-914 -193 180 194 0
914 -193 180 -194 0
-915 193 -180 194 0
915 193 -180 -194 0
-916 193 180 194 0
916 193 180 -194 0
-917 -194 -181 195 0
917 -194 -181 -195 0
-918 -194 181 195 0
918 -194 181 -195 0
-919 194 -181 195 0
919 194 -181 -195 0
-920 194 181 195 0
920 194 181 -195 0
884 185 172 -186 0
-885 -186 -173 187 0
573 -105 -92 -106 0
-574 -105 92 106 0
574 -106 -105 92 0
-637 122 -120 -108 0
636 120 108 -122 0
-636 120 108 122 0
-575 105 -92 106 0
575 105 -92 -106 0
-576 106 105 92 0
576 -106 105 92 0
-593 -97 -110 111 0
593 -97 -110 -111 0
-594 97 -110 111 0
594 97 -110 -111 0
-595 -97 110 111 0
595 -97 110 -111 0
-596 97 110 111 0
596 97 110 -111 0
860 -179 -180 165 0
861 179 -165 -180 0
638 -122 108 -120 0
-635 122 120 -108 0
-644 124 -123 110 0
644 -124 -123 110 0
630 119 -120 106 0
562 89 -102 -103 0
-563 -89 102 103 0
563 -89 102 -103 0
-564 89 102 103 0
564 89 102 -103 0
-569 105 -91 -104 0
569 -105 -91 -104 0
-570 91 -104 105 0
570 91 -104 -105 0
637 -120 -108 -122 0
-571 104 -91 105 0
571 104 -91 -105 0
706 -139 126 -140 0
-572 105 104 91 0
-855 -178 -165 179 0
572 -105 104 91 0
-573 106 -105 -92 0
875 183 -184 -156 0
-870 168 181 182 0
869 -168 181 -182 0
-869 -168 181 182 0
-875 183 184 -156 0
868 168 -181 -182 0
870 168 181 -182 0
-861 -165 180 179 0
-638 122 -120 108 0
874 -183 156 -184 0
-873 -183 -156 184 0
873 -183 -184 -156 0
-868 168 -181 182 0
867 -168 -181 -182 0
-874 -183 184 156 0
635 -122 -108 120 0
-867 -168 -181 182 0
862 179 165 -180 0
-862 179 180 165 0
-172 -159 173 0
39 11 40 0
-22 -21 8 0
21 -22 -8 0
-201 1 4 0
22 -21 -8 0
201 1 -4 0
-202 4 -1 0
202 -4 -1 0
-203 -4 5 0
203 -5 -4 0
-204 4 5 0
204 -5 4 0
-205 -5 6 0
205 -5 -6 0
-206 5 6 0
206 -6 5 0
-163 -178 -150 0
-163 150 178 0
60 61 47 0
-655 -99 127 0
42 28 -27 0
81 -92 94 0
-18 -1 16 0
-92 79 94 0
-65 -78 -79 0
5 19 18 0
-97 84 112 0
20 6 -19 0
104 -117 -118 0
77 90 -91 0
-78 92 -91 0
-185 -184 -171 0
872 -183 169 0
-872 183 169 0
871 -183 -169 0
-871 183 -169 0
40 -39 -11 0
-278 29 -1 0
278 -29 -1 0
48 -50 -36 0
-114 -102 -116 0
-493 85 -71 0
-16 4 18 0
21 22 8 0
-45 32 46 0
332 29 -43 0
331 -29 -43 0
-332 29 43 0
-817 169 -141 0
817 -169 -141 0
-818 169 141 0
163 150 -178 0
818 -169 141 0
-31 -32 18 0
86 85 71 0
152 -138 -151 0
494 -85 71 0
-494 71 85 0
-85 493 -71 0
-180 181 165 0
655 -99 -127 0
-207 7 -6 0
163 178 -150 0
207 -7 -6 0
-208 7 6 0
208 -7 6 0
-209 -7 8 0
209 -7 -8 0
-210 7 8 0
210 7 -8 0
-192 191 -178 0
-215 -8 11 0
215 -8 -11 0
-216 8 11 0
-56 -84 -83 0
216 8 -11 0
-103 -117 -116 0
-277 29 1 0
56 84 -69 0
277 -29 1 0
276 -28 -11 0
-276 28 -11 0
106 -94 108 0
-125 124 -111 0
273 -28 -27 0
-273 28 -27 0
-381 56 -42 0
-56 384 55 0
-384 56 55 0
39 -40 -11 0
742 -149 135 0
-742 149 135 0
97 -112 111 0
-69 -68 55 0
739 -149 -148 0
-739 149 -148 0
381 -56 -42 0
-106 92 -108 0
653 -126 125 0
-653 126 125 0
652 -126 112 0
-652 126 112 0
122 95 -123 0
646 -124 123 0
-646 123 124 0
4 1 18 0
439 -43 -71 0
-412 64 50 0
412 -64 50 0
-413 64 63 0
413 -64 63 0
-48 -20 50 0
226 -16 1 0
-226 1 16 0
-439 -43 71 0
-836 174 -173 0
836 -174 -173 0
-837 174 -160 0
837 -174 -160 0
826 157 -171 0
440 43 -71 0
104 103 90 0
-16 227 -1 0
-227 -1 16 0
-826 157 171 0
-36 20 -50 0
823 -156 -171 0
-823 -156 171 0
547 -99 -85 0
-548 99 85 0
548 -99 85 0
-94 -92 108 0
-54 27 -55 0
-81 82 -68 0
81 92 -94 0
148 -134 -147 0
123 -95 -108 0
-150 151 165 0
92 79 -94 0
-52 92 -94 0
643 -124 -110 0
38 -25 -39 0
-709 141 -127 0
-101 88 -102 0
-331 -29 43 0
-643 124 -110 0
-440 43 71 0
-74 61 75 0
105 119 -118 0
-52 -92 94 0
144 -131 145 0
767 141 -156 0
-767 141 156 0
766 -141 -156 0
-766 -141 156 0
122 -123 108 0
-710 141 127 0
710 127 -141 0
-130 -144 -143 0
-157 156 -143 0
-656 127 99 0
656 -127 99 0
709 -127 -141 0
-59 -60 46 0
-112 -84 111 0
37 -51 -50 0
-135 -120 134 0
-83 -84 69 0
-547 99 -85 0
39 -27 0
25 40 0
-195 -182 0
117 103 0
117 116 0
-105 -119 0
-119 118 0
117 118 0
118 -104 0
95 -110 0
116 102 0
-53 81 0
-82 68 0
-82 81 0
27 -42 0
131 -145 0
-144 -145 0
143 144 0
130 144 0
162 -190 0
-124 125 0
-16 31 0
20 63 0
1 31 0
48 63 0
36 50 0
114 116 0
83 84 0
-85 -86 0
-71 -86 0
-122 123 0
-92 91 0
-92 78 0
91 -90 0
-77 91 0
-103 -104 0
65 79 0
101 102 0
-88 102 0
79 78 0
120 135 0
54 55 0
55 -27 0
132 -160 0
150 -165 0
-151 -165 0
135 -134 0
-38 39 0
138 -152 0
39 25 0
-18 -19 0
-5 -19 0
-4 -18 0
-6 -20 0
19 -20 0
59 60 0
-156 157 0
-46 60 0
143 157 0
-160 -159 0
-152 151 0
-133 -147 0
111 125 0
-145 -147 0
-32 -46 0
132 -147 0
-160 -145 0
175 -190 0
68 69 0
69 -55 0
-28 -42 0
112 -111 0
-75 -61 0
74 -75 0
-96 -110 0
108 -110 0
-108 94 0
-37 51 0
40 -27 0
-90 -104 0
184 185 0
171 185 0
178 192 0
-191 192 0
189 -190 0
-11 -27 0
172 -173 0
159 -173 0
30 31 0
-18 32 0
31 32 0
147 -148 0
45 -46 0
-148 134 0
-62 63 0
-60 -61 0
50 51 0
-47 -61 0
-165 -181 0
180 -181 0
c restarts              : 692
c conflicts             : 14             (246 /sec)
c decisions             : 510203         (0.00 % random) (8952343 /sec)
c propagations          : 740193         (12987893 /sec)
c conflict literals     : 48             (0.00 % deleted)
c CPU time (sec.): 0.056991
